unsat
(define-fun inv ((s (_ BitVec 4)) (t (_ BitVec 4))) (_ BitVec 4) (bvlshr t s))
0.15user 0.01system 0:00.16elapsed 99%CPU (0avgtext+0avgdata 28196maxresident)k
0inputs+8outputs (0major+1693minor)pagefaults 0swaps
